p cnf 152 472
-4 -1 -2 0
4 1 -2 0
4 -1 2 0
-4 1 2 0
-5 2 3 0
5 -2 0
5 -3 0
-6 -3 -3 0
6 3 0
6 3 0
7 -5 -3 0
-7 5 0
-7 3 0
-8 4 7 0
8 -4 0
8 -7 0
-9 -7 -6 0
9 7 -6 0
9 -7 6 0
-9 7 6 0
10 -8 -9 0
-10 8 0
-10 9 0
1 -145 11 0
1 145 -11 0
-1 -146 11 0
-1 146 -11 0
1 -147 12 0
1 147 -12 0
-1 -148 12 0
-1 148 -12 0
1 -149 13 0
1 149 -13 0
-1 -150 13 0
-1 150 -13 0
1 -151 14 0
1 151 -14 0
-1 -152 14 0
-1 152 -14 0
2 -11 15 0
2 11 -15 0
-2 -12 15 0
-2 12 -15 0
2 -13 16 0
2 13 -16 0
-2 -14 16 0
-2 14 -16 0
3 -15 17 0
3 15 -17 0
-3 -16 17 0
-3 16 -17 0
-18 -10 -17 0
18 10 -17 0
18 -10 17 0
-18 10 17 0
-22 -19 -20 0
22 19 -20 0
22 -19 20 0
-22 19 20 0
-23 20 21 0
23 -20 0
23 -21 0
-24 -21 -21 0
24 21 0
24 21 0
25 -23 -21 0
-25 23 0
-25 21 0
-26 22 25 0
26 -22 0
26 -25 0
-27 -25 -24 0
27 25 -24 0
27 -25 24 0
-27 25 24 0
28 -26 -27 0
-28 26 0
-28 27 0
19 -145 29 0
19 145 -29 0
-19 -146 29 0
-19 146 -29 0
19 -147 30 0
19 147 -30 0
-19 -148 30 0
-19 148 -30 0
19 -149 31 0
19 149 -31 0
-19 -150 31 0
-19 150 -31 0
19 -151 32 0
19 151 -32 0
-19 -152 32 0
-19 152 -32 0
20 -29 33 0
20 29 -33 0
-20 -30 33 0
-20 30 -33 0
20 -31 34 0
20 31 -34 0
-20 -32 34 0
-20 32 -34 0
21 -33 35 0
21 33 -35 0
-21 -34 35 0
-21 34 -35 0
-36 -28 -35 0
36 28 -35 0
36 -28 35 0
-36 28 35 0
-40 -37 -38 0
40 37 -38 0
40 -37 38 0
-40 37 38 0
-41 38 39 0
41 -38 0
41 -39 0
-42 -39 -39 0
42 39 0
42 39 0
43 -41 -39 0
-43 41 0
-43 39 0
-44 40 43 0
44 -40 0
44 -43 0
-45 -43 -42 0
45 43 -42 0
45 -43 42 0
-45 43 42 0
46 -44 -45 0
-46 44 0
-46 45 0
37 -145 47 0
37 145 -47 0
-37 -146 47 0
-37 146 -47 0
37 -147 48 0
37 147 -48 0
-37 -148 48 0
-37 148 -48 0
37 -149 49 0
37 149 -49 0
-37 -150 49 0
-37 150 -49 0
37 -151 50 0
37 151 -50 0
-37 -152 50 0
-37 152 -50 0
38 -47 51 0
38 47 -51 0
-38 -48 51 0
-38 48 -51 0
38 -49 52 0
38 49 -52 0
-38 -50 52 0
-38 50 -52 0
39 -51 53 0
39 51 -53 0
-39 -52 53 0
-39 52 -53 0
-54 -46 -53 0
54 46 -53 0
54 -46 53 0
-54 46 53 0
-58 -55 -56 0
58 55 -56 0
58 -55 56 0
-58 55 56 0
-59 56 57 0
59 -56 0
59 -57 0
-60 -57 -57 0
60 57 0
60 57 0
61 -59 -57 0
-61 59 0
-61 57 0
-62 58 61 0
62 -58 0
62 -61 0
-63 -61 -60 0
63 61 -60 0
63 -61 60 0
-63 61 60 0
64 -62 -63 0
-64 62 0
-64 63 0
55 -145 65 0
55 145 -65 0
-55 -146 65 0
-55 146 -65 0
55 -147 66 0
55 147 -66 0
-55 -148 66 0
-55 148 -66 0
55 -149 67 0
55 149 -67 0
-55 -150 67 0
-55 150 -67 0
55 -151 68 0
55 151 -68 0
-55 -152 68 0
-55 152 -68 0
56 -65 69 0
56 65 -69 0
-56 -66 69 0
-56 66 -69 0
56 -67 70 0
56 67 -70 0
-56 -68 70 0
-56 68 -70 0
57 -69 71 0
57 69 -71 0
-57 -70 71 0
-57 70 -71 0
-72 -64 -71 0
72 64 -71 0
72 -64 71 0
-72 64 71 0
-76 -73 -74 0
76 73 -74 0
76 -73 74 0
-76 73 74 0
-77 74 75 0
77 -74 0
77 -75 0
-78 -75 -75 0
78 75 0
78 75 0
79 -77 -75 0
-79 77 0
-79 75 0
-80 76 79 0
80 -76 0
80 -79 0
-81 -79 -78 0
81 79 -78 0
81 -79 78 0
-81 79 78 0
82 -80 -81 0
-82 80 0
-82 81 0
73 -145 83 0
73 145 -83 0
-73 -146 83 0
-73 146 -83 0
73 -147 84 0
73 147 -84 0
-73 -148 84 0
-73 148 -84 0
73 -149 85 0
73 149 -85 0
-73 -150 85 0
-73 150 -85 0
73 -151 86 0
73 151 -86 0
-73 -152 86 0
-73 152 -86 0
74 -83 87 0
74 83 -87 0
-74 -84 87 0
-74 84 -87 0
74 -85 88 0
74 85 -88 0
-74 -86 88 0
-74 86 -88 0
75 -87 89 0
75 87 -89 0
-75 -88 89 0
-75 88 -89 0
-90 -82 -89 0
90 82 -89 0
90 -82 89 0
-90 82 89 0
-94 -91 -92 0
94 91 -92 0
94 -91 92 0
-94 91 92 0
-95 92 93 0
95 -92 0
95 -93 0
-96 -93 -93 0
96 93 0
96 93 0
97 -95 -93 0
-97 95 0
-97 93 0
-98 94 97 0
98 -94 0
98 -97 0
-99 -97 -96 0
99 97 -96 0
99 -97 96 0
-99 97 96 0
100 -98 -99 0
-100 98 0
-100 99 0
91 -145 101 0
91 145 -101 0
-91 -146 101 0
-91 146 -101 0
91 -147 102 0
91 147 -102 0
-91 -148 102 0
-91 148 -102 0
91 -149 103 0
91 149 -103 0
-91 -150 103 0
-91 150 -103 0
91 -151 104 0
91 151 -104 0
-91 -152 104 0
-91 152 -104 0
92 -101 105 0
92 101 -105 0
-92 -102 105 0
-92 102 -105 0
92 -103 106 0
92 103 -106 0
-92 -104 106 0
-92 104 -106 0
93 -105 107 0
93 105 -107 0
-93 -106 107 0
-93 106 -107 0
-108 -100 -107 0
108 100 -107 0
108 -100 107 0
-108 100 107 0
-112 -109 -110 0
112 109 -110 0
112 -109 110 0
-112 109 110 0
-113 110 111 0
113 -110 0
113 -111 0
-114 -111 -111 0
114 111 0
114 111 0
115 -113 -111 0
-115 113 0
-115 111 0
-116 112 115 0
116 -112 0
116 -115 0
-117 -115 -114 0
117 115 -114 0
117 -115 114 0
-117 115 114 0
118 -116 -117 0
-118 116 0
-118 117 0
109 -145 119 0
109 145 -119 0
-109 -146 119 0
-109 146 -119 0
109 -147 120 0
109 147 -120 0
-109 -148 120 0
-109 148 -120 0
109 -149 121 0
109 149 -121 0
-109 -150 121 0
-109 150 -121 0
109 -151 122 0
109 151 -122 0
-109 -152 122 0
-109 152 -122 0
110 -119 123 0
110 119 -123 0
-110 -120 123 0
-110 120 -123 0
110 -121 124 0
110 121 -124 0
-110 -122 124 0
-110 122 -124 0
111 -123 125 0
111 123 -125 0
-111 -124 125 0
-111 124 -125 0
-126 -118 -125 0
126 118 -125 0
126 -118 125 0
-126 118 125 0
-130 -127 -128 0
130 127 -128 0
130 -127 128 0
-130 127 128 0
-131 128 129 0
131 -128 0
131 -129 0
-132 -129 -129 0
132 129 0
132 129 0
133 -131 -129 0
-133 131 0
-133 129 0
-134 130 133 0
134 -130 0
134 -133 0
-135 -133 -132 0
135 133 -132 0
135 -133 132 0
-135 133 132 0
136 -134 -135 0
-136 134 0
-136 135 0
127 -145 137 0
127 145 -137 0
-127 -146 137 0
-127 146 -137 0
127 -147 138 0
127 147 -138 0
-127 -148 138 0
-127 148 -138 0
127 -149 139 0
127 149 -139 0
-127 -150 139 0
-127 150 -139 0
127 -151 140 0
127 151 -140 0
-127 -152 140 0
-127 152 -140 0
128 -137 141 0
128 137 -141 0
-128 -138 141 0
-128 138 -141 0
128 -139 142 0
128 139 -142 0
-128 -140 142 0
-128 140 -142 0
129 -141 143 0
129 141 -143 0
-129 -142 143 0
-129 142 -143 0
-144 -136 -143 0
144 136 -143 0
144 -136 143 0
-144 136 143 0
-18 0
-36 0
-54 0
-72 0
-90 0
-108 0
-126 0
-144 0
-1 0
-2 0
3 0
-19 0
-20 0
-21 0
-37 0
38 0
-39 0
-55 0
56 0
57 0
73 0
-74 0
-75 0
91 0
92 0
-93 0
109 0
110 0
111 0
127 0
-128 0
129 0
